
Gurobi 8.1.1 (win64) logging started 11/28/19 20:01:53

Changed value of parameter LogFile to logs/drand/rlt/drand-10-110-2.log
   Prev: gurobi.log  Default: 
Changed value of parameter LogToConsole to 0
   Prev: 1  Min: 0  Max: 1  Default: 1
Changed value of parameter TimeLimit to 3600.0
   Prev: 1e+100  Min: 0.0  Max: 1e+100  Default: 1e+100
Optimize a model with 423748 rows, 141778 columns and 993511 nonzeros
Variable types: 0 continuous, 141778 integer (532 binary)
Coefficient statistics:
  Matrix range     [1e+00, 1e+00]
  Objective range  [1e+00, 1e+00]
  Bounds range     [1e+00, 1e+00]
  RHS range        [1e+00, 1e+00]
Presolve removed 0 rows and 0 columns (presolve time = 5s) ...
Presolve time: 7.72s
Presolved: 423748 rows, 141778 columns, 993511 nonzeros
Variable types: 0 continuous, 141778 integer (141778 binary)
Found heuristic solution: objective 9.0000000

Root simplex log...

Iteration    Objective       Primal Inf.    Dual Inf.      Time
       0    0.0000000e+00   1.000000e+01   0.000000e+00      9s
    2050    4.9375000e-06   2.000000e+01   0.000000e+00     10s
    4952    1.0000086e+00   1.022222e+01   0.000000e+00     16s
    5282    1.0000090e+00   6.350000e+01   0.000000e+00     20s
    5752    1.0000096e+00   1.100000e+01   0.000000e+00     25s
    6192    1.1428639e+00   1.457143e+01   0.000000e+00     30s
    6612    1.2000086e+00   9.000000e+00   0.000000e+00     36s
    7032    1.2275223e+00   9.671958e+00   0.000000e+00     42s
    7302    1.2338789e+00   9.169355e+00   0.000000e+00     46s
    7572    1.2381050e+00   1.071429e+01   0.000000e+00     51s
    7992    1.2400064e+00   1.004000e+01   0.000000e+00     57s
    8272    1.2449047e+00   1.059184e+01   0.000000e+00     61s
    8692    1.2459124e+00   1.227869e+01   0.000000e+00     66s
    8962    1.2473177e+00   1.003226e+01   0.000000e+00     70s
    9442    1.2500028e+00   1.783333e+01   0.000000e+00     76s
    9982    1.2500037e+00   1.383333e+01   0.000000e+00     81s
   10472    1.2500061e+00   7.978041e+00   0.000000e+00     85s
   10862    1.2500071e+00   8.411082e+00   0.000000e+00     91s
   11262    1.2500076e+00   1.036765e+01   0.000000e+00     96s
   11692    1.2504527e+00   2.995061e+01   0.000000e+00    101s
   12422    1.2520338e+00   5.366309e+02   0.000000e+00    106s
   16321    1.2532802e+00   9.875337e+02   0.000000e+00    110s
   19547    1.2553727e+00   2.254564e+01   0.000000e+00    115s
   22534    1.2558163e+00   1.216084e+02   0.000000e+00    120s
   24563    1.2558576e+00   0.000000e+00   0.000000e+00    124s

Root relaxation: objective 1.255858e+00, 24563 iterations, 114.79 seconds
Total elapsed time = 127.27s
Total elapsed time = 130.28s

    Nodes    |    Current Node    |     Objective Bounds      |     Work
 Expl Unexpl |  Obj  Depth IntInf | Incumbent    BestBd   Gap | It/Node Time

     0     0    1.25586    0 4868    9.00000    1.25586  86.0%     -  151s
     0     0    1.38132    0 3280    9.00000    1.38132  84.7%     -  289s
     0     0    1.52393    0 4471    9.00000    1.52393  83.1%     -  673s
     0     0    1.53869    0 4645    9.00000    1.53869  82.9%     -  799s
     0     0    1.57115    0 4637    9.00000    1.57115  82.5%     -  849s
     0     0    1.58026    0 4274    9.00000    1.58026  82.4%     - 1231s
     0     0    1.58761    0 4418    9.00000    1.58761  82.4%     - 1241s
     0     0    1.59250    0 4226    9.00000    1.59250  82.3%     - 1254s
     0     0    1.59276    0 4308    9.00000    1.59276  82.3%     - 1265s
     0     0    1.59276    0 4309    9.00000    1.59276  82.3%     - 1272s
     0     0    1.59604    0 4517    9.00000    1.59604  82.3%     - 1283s
     0     0    1.59656    0 4410    9.00000    1.59656  82.3%     - 1293s
     0     0    1.60078    0 4659    9.00000    1.60078  82.2%     - 1314s
     0     0    1.60131    0 4604    9.00000    1.60131  82.2%     - 1435s
     0     0    1.60675    0 4523    9.00000    1.60675  82.1%     - 1462s
     0     0    1.60686    0 4580    9.00000    1.60686  82.1%     - 1476s
     0     0    1.61133    0 4583    9.00000    1.61133  82.1%     - 1506s
     0     0    1.61153    0 4577    9.00000    1.61153  82.1%     - 1632s
     0     0    1.62239    0 4481    9.00000    1.62239  82.0%     - 1691s
     0     0    1.62603    0 4366    9.00000    1.62603  81.9%     - 1838s
     0     0    1.63691    0 4102    9.00000    1.63691  81.8%     - 1907s
     0     0    1.63868    0 4065    9.00000    1.63868  81.8%     - 2061s
     0     0    1.64820    0 4148    9.00000    1.64820  81.7%     - 2136s
     0     0    1.64895    0 4083    9.00000    1.64895  81.7%     - 2289s
     0     0    1.65884    0 4231    9.00000    1.65884  81.6%     - 2369s
     0     0    1.66194    0 4165    9.00000    1.66194  81.5%     - 2582s
     0     0    1.67137    0 4046    9.00000    1.67137  81.4%     - 2672s
     0     0    1.67215    0 3974    9.00000    1.67215  81.4%     - 2926s
     0     0    1.67961    0 3633    9.00000    1.67961  81.3%     - 3015s
     0     0    1.67967    0 3846    9.00000    1.67967  81.3%     - 3063s
     0     0    1.68802    0 3851    9.00000    1.68802  81.2%     - 3180s
     0     0    1.68808    0 3896    9.00000    1.68808  81.2%     - 3463s
     0     0          -    0         9.00000    1.68808  81.2%     - 3600s

Cutting planes:
  Gomory: 2
  MIR: 2
  Zero half: 99

Explored 1 nodes (209508 simplex iterations) in 3600.16 seconds
Thread count was 4 (of 4 available processors)

Solution count 1: 9 

Time limit reached
Best objective 9.000000000000e+00, best bound 2.000000000000e+00, gap 77.7778%
